LABID: m4x_000049
RAW_ID: C00061
NAME: FMN
LEVEL: 3
ION_MODE: negative
FORMULA: C17H21N4O9P
PRECURSORMZ: 456.1046
SMILES: CC1=CC2=C(C=C1C)N(C3=NC(=O)NC(=O)C3=N2)C[C@@H]([C@@H]([C@@H](COP(=O)(O)O)O)O)O
INCHI: InChI=1S/C17H21N4O9P/c1-7-3-9-10(4-8(7)2)21(15-13(18-9)16(25)20-17(26)19-15)5-11(22)14(24)12(23)6-30-31(27,28)29/h3-4,11-12,14,22-24H,5-6H2,1-2H3,(H,20,25,26)(H2,27,28,29)/t11-,12+,14-/m0/s1
INCHIKEY: FVTCRASFADXXNN-SCRDCRAPSA-N
INCHIKEY1: FVTCRASFADXXNN
KINGDOM: Organic compounds
SUPERCLASS: Nucleosides, nucleotides, and analogues
CLASS: Flavin nucleotides
SUBCLASS: NA
rt_OTHER: 404.49000
ccs_[M+H]+: 198.8495
ccs_[M+Na]+: 201.2582
ccs_[M+NH4]+: 200.7241
ccs_[M-H2O+H]+: 196.8001
ccs_[M-H]-: 194.0855
ccs_[M+Na-2H]-: 194.4941
ccs_[M+HCOO]-: 195.0826
Num Peaks: 1
0 0

LABID: m4x_000050
RAW_ID: C00062
NAME: L-Arginine
LEVEL: 1
ION_MODE: negative
FORMULA: C6H14N4O2
PRECURSORMZ: 174.1117
SMILES: C(C[C@@H](C(=O)O)N)CN=C(N)N
INCHI: InChI=1S/C6H14N4O2/c7-4(5(11)12)2-1-3-10-6(8)9/h4H,1-3,7H2,(H,11,12)(H4,8,9,10)/t4-/m0/s1
INCHIKEY: ODKSFYDXXFIFQN-BYPYZUCNSA-N
INCHIKEY1: ODKSFYDXXFIFQN
KINGDOM: Organic compounds
SUPERCLASS: Organic acids and derivatives
CLASS: Carboxylic acids and derivatives
SUBCLASS: Amino acids, peptides, and analogues
rt_OTHER: 494.99000
ccs_[M+H]+: 138.7373
ccs_[M+Na]+: 143.2607
ccs_[M+NH4]+: 142.2492
ccs_[M-H2O+H]+: 134.9619
ccs_[M-H]-: 135.8361
ccs_[M+Na-2H]-: 137.3807
ccs_[M+HCOO]-: 139.1444
Num Peaks: 1
0 0