LABID: m4x_016424
RAW_ID: HMDB0001269
NAME: Methylmalonyl-CoA
LEVEL: 1
ION_MODE: negative
FORMULA: C25H40N7O19P3S
PRECURSORMZ: 867.1313
SMILES: C[C@@H](C(O)=O)C(=O)SCCNC(=O)CCNC(=O)C(O)C(C)(C)COP(O)(=O)OP(O)(=O)OC[C@H]1O[C@H]([C@H](O)[C@@H]1OP(O)(O)=O)N1C=NC2=C1N=CN=C2N
INCHI: InChI=1S/C25H40N7O19P3S/c1-12(23(37)38)24(39)55-7-6-27-14(33)4-5-28-21(36)18(35)25(2,3)9-48-54(45,46)51-53(43,44)47-8-13-17(50-52(40,41)42)16(34)22(49-13)32-11-31-15-19(26)29-10-30-20(15)32/h10-13,16-18,22,34-35H,4-9H2,1-3H3,(H,27,33)(H,28,36)(H,37,38)(H,43,44)(H,45,46)(H2,26,29,30)(H2,40,41,42)/t12-,13+,16+,17+,18?,22+/m0/s1
INCHIKEY: MZFOKIKEPGUZEN-PNEPRAIJSA-N
INCHIKEY1: MZFOKIKEPGUZEN
KINGDOM: Organic compounds
SUPERCLASS: Lipids and lipid-like molecules
CLASS: Fatty Acyls
SUBCLASS: Fatty acyl thioesters
rt_OTHER: 464.94000
ccs_[M+H]+: 256.8594
ccs_[M+Na]+: 256.2482
ccs_[M+NH4]+: 256.3920
ccs_[M-H2O+H]+: 257.3083
ccs_[M-H]-: 256.6223
ccs_[M+Na-2H]-: 260.7783
ccs_[M+HCOO]-: 265.3868
Num Peaks: 5
475.06253 56
822.11213 73
822.13739 96
825.12825 46
866.12105 288

LABID: m4x_016493
RAW_ID: HMDB0001563
NAME: 1-Methylguanosine
LEVEL: 1
ION_MODE: negative
FORMULA: C11H15N5O5
PRECURSORMZ: 297.1073
SMILES: CN1C(N)=NC2=C(N=CN2[C@@H]2O[C@H](CO)[C@@H](O)[C@H]2O)C1=O
INCHI: InChI=1S/C11H15N5O5/c1-15-9(20)5-8(14-11(15)12)16(3-13-5)10-7(19)6(18)4(2-17)21-10/h3-4,6-7,10,17-19H,2H2,1H3,(H2,12,14)/t4-,6-,7-,10-/m1/s1
INCHIKEY: UTAIYTHAJQNQDW-KQYNXXCUSA-N
INCHIKEY1: UTAIYTHAJQNQDW
KINGDOM: Organic compounds
SUPERCLASS: Nucleosides, nucleotides, and analogues
CLASS: Purine nucleosides
SUBCLASS: NA
rt_OTHER: 189.35000
ccs_[M+H]+: 167.1773
ccs_[M+Na]+: 171.1570
ccs_[M+NH4]+: 170.2689
ccs_[M-H2O+H]+: 163.8402
ccs_[M-H]-: 166.8496
ccs_[M+Na-2H]-: 166.4415
ccs_[M+HCOO]-: 166.1117
Num Peaks: 5
106.0289 0.0288752233063075
121.051935 0.0382097449647917
133.01521 0.1345222498408
149.03427 0.0553304125593282
164.05742 1
